(set-info :smt-lib-version 2.6)
(set-logic LRA)
(set-info :source |
   Monniaux, David; Quantifier Elimination by Lazy Model Enumeration, CAV 2010
|)
(set-info :category "random")
; ./Mjollnir_examples/B5/formula_067.m
(set-info :status unsat)
(assert
 (forall ((|v17:0| Real) )(forall ((|v16:1| Real) )(forall ((|v15:2| Real) )(forall ((|v14:3| Real) )(forall ((|v13:4| Real) )(forall ((|v12:5| Real) )(exists ((|v11:6| Real) )(exists ((|v10:7| Real) )(exists ((|v9:8| Real) )(exists ((|v8:9| Real) )(exists ((|v7:10| Real) )(exists ((|v6:11| Real) )(forall ((|v5:12| Real) )(forall ((|v4:13| Real) )(forall ((|v3:14| Real) )(forall ((|v2:15| Real) )(forall ((|v1:16| Real) )(forall ((|v0:17| Real) )(let ((?x323 (- 12)))
(let ((?x218 (- 14)))
(let ((?x481 (* ?x218 |v2:15|)))
(let ((?x10 5))
(let ((?x11 (* ?x10 |v12:5|)))
(let ((?x506 (+ (+ (+ (* (- 1) |v0:17|) (* 16 |v17:0|)) ?x11) ?x481)))
(let ((?x230 (- 17)))
(let ((?x498 (+ (+ (* (- 19) |v9:8|) (* 4 |v13:4|)) (* (- 6) |v13:4|))))
(let ((?x36 6))
(let ((?x19 (- 19)))
(let ((?x216 (* ?x19 |v8:9|)))
(let ((?x491 (+ (+ (+ (* 17 |v14:3|) (* (- 6) |v5:12|)) ?x216) (* 20 |v4:13|))))
(let ((?x175 (- 9)))
(let ((?x484 (+ (+ (+ (* (- 15) |v16:1|) (* 9 |v7:10|)) ?x481) (* (- 11) |v14:3|))))
(let (($x509 (and (and (<= ?x484 ?x175) (<= ?x491 ?x36)) (and (<= (+ ?x498 (* (- 7) |v2:15|)) ?x230) (<= ?x506 ?x323)))))
(let ((?x69 (- 7)))
(let ((?x475 (+ (+ (+ (* ?x323 |v14:3|) (* ?x69 |v7:10|)) (* 17 |v4:13|)) (* 12 |v8:9|))))
(let ((?x136 12))
(let ((?x137 (* ?x136 |v3:14|)))
(let ((?x469 (+ (+ (+ (* ?x323 |v13:4|) (* 9 |v9:8|)) ?x137) (* 20 |v7:10|))))
(let ((?x66 10))
(let ((?x462 (+ (+ (+ (* (- 16) |v6:11|) (* 0 |v10:7|)) ?x11) (* 3 |v5:12|))))
(let ((?x453 (+ (+ (* (- 1) |v15:2|) (* (- 11) |v3:14|)) (* ?x175 |v9:8|))))
(let (($x478 (or (or (<= (+ ?x453 (* 14 |v6:11|)) ?x69) (<= ?x462 ?x66)) (or (<= ?x469 ?x323) (<= ?x475 ?x69)))))
(let ((?x149 15))
(let ((?x445 (+ (+ (* 18 |v6:11|) (* 9 |v13:4|)) (* (- 15) |v5:12|))))
(let ((?x434 (* ?x323 |v14:3|)))
(let ((?x41 18))
(let ((?x208 (* ?x41 |v12:5|)))
(let (($x436 (<= (+ (+ (+ (* ?x66 |v15:2|) (* 19 |v3:14|)) ?x208) ?x434) ?x19)))
(let ((?x426 (+ (+ (* ?x19 |v2:15|) (* (- 11) |v5:12|)) (* 11 |v7:10|))))
(let ((?x195 9))
(let ((?x92 (- 1)))
(let ((?x172 (* ?x92 |v16:1|)))
(let ((?x419 (+ (+ (+ (* 13 |v5:12|) (* 2 |v3:14|)) ?x172) (* 7 |v14:3|))))
(let ((?x32 3))
(let ((?x412 (+ (+ (+ (* ?x92 |v10:7|) (* ?x230 |v8:9|)) (* 8 |v11:6|)) (* ?x230 |v11:6|))))
(let (($x438 (or (and (<= ?x412 ?x32) (<= ?x419 ?x195)) (and (<= (+ ?x426 (* ?x69 |v14:3|)) ?x10) $x436))))
(let ((?x400 (+ (+ (* 4 |v15:2|) (* (- 2) |v13:4|)) (* (- 20) |v17:0|))))
(let ((?x82 8))
(let ((?x392 (+ (+ (* ?x230 |v5:12|) (* (- 10) |v7:10|)) (* 11 |v8:9|))))
(let (($x404 (or (<= (+ ?x392 (* ?x92 |v5:12|)) ?x82) (<= (+ ?x400 (* (- 5) |v1:16|)) ?x92))))
(let ((?x383 (+ (+ (* 20 |v6:11|) (* (- 6) |v17:0|)) (* 13 |v11:6|))))
(let ((?x49 (- 15)))
(let ((?x376 (+ (+ (* (- 16) |v7:10|) (* ?x175 |v8:9|)) (* 2 |v10:7|))))
(let (($x387 (and (<= (+ ?x376 (* ?x149 |v7:10|)) ?x49) (<= (+ ?x383 (* ?x218 |v14:3|)) ?x82))))
(let ((?x285 14))
(let ((?x366 (+ (+ (+ (* ?x69 |v13:4|) (* ?x195 |v1:16|)) (* (- 13) |v11:6|)) (* ?x49 |v2:15|))))
(let ((?x46 (- 20)))
(let ((?x182 (* ?x46 |v15:2|)))
(let ((?x356 (+ (+ (* (- 11) |v11:6|) (* (- 6) |v14:3|)) (* ?x19 |v6:11|))))
(let ((?x348 (+ (+ (* ?x46 |v5:12|) (* (- 5) |v11:6|)) (* (- 3) |v12:5|))))
(let (($x368 (and (and (<= (+ ?x348 (* ?x195 |v11:6|)) ?x218) (<= (+ ?x356 ?x182) ?x32)) (<= ?x366 ?x285))))
(let ((?x143 17))
(let ((?x339 (* ?x195 |v7:10|)))
(let ((?x338 (+ (+ (* (- 5) |v9:8|) (* ?x323 |v9:8|)) (* (- 3) |v5:12|))))
(let ((?x73 16))
(let ((?x330 (+ (+ (* (- 16) |v1:16|) (* ?x73 |v16:1|)) (* (- 2) |v8:9|))))
(let ((?x322 (+ (+ (+ (* ?x32 |v8:9|) (* (- 10) |v10:7|)) (* ?x32 |v7:10|)) (* ?x32 |v16:1|))))
(let ((?x311 (+ (+ (* (- 18) |v13:4|) (* (- 3) |v2:15|)) (* ?x136 |v9:8|))))
(let (($x343 (or (or (<= (+ ?x311 (* 11 |v13:4|)) ?x41) (<= ?x322 ?x323)) (and (<= (+ ?x330 (* ?x230 |v3:14|)) ?x73) (<= (+ ?x338 ?x339) ?x143)))))
(let (($x512 (or (or (and $x343 $x368) (or (and $x387 $x404) $x438)) (or (<= (+ ?x445 (* ?x66 |v9:8|)) ?x149) (and $x478 $x509)))))
(let ((?x113 19))
(let ((?x300 (+ (+ (+ (* ?x73 |v0:17|) (* ?x149 |v2:15|)) (* 7 |v15:2|)) (* (- 16) |v16:1|))))
(let ((?x110 (- 4)))
(let ((?x111 (* ?x110 |v0:17|)))
(let ((?x291 (+ (+ (* (- 16) |v8:9|) (* ?x285 |v11:6|)) (* (- 10) |v13:4|))))
(let ((?x278 (+ (+ (* ?x92 |v4:13|) (* (- 18) |v9:8|)) (* (- 3) |v7:10|))))
(let ((?x85 (- 2)))
(let ((?x202 (* ?x85 |v6:11|)))
(let ((?x270 (+ (+ (+ (* ?x195 |v9:8|) (* (- 5) |v17:0|)) (* ?x175 |v0:17|)) ?x202)))
(let (($x303 (and (and (<= ?x270 ?x136) (<= (+ ?x278 (* ?x149 |v14:3|)) ?x110)) (or (<= (+ ?x291 ?x111) ?x195) (<= ?x300 ?x113)))))
(let ((?x103 (- 6)))
(let ((?x262 (+ (+ (+ (* ?x19 |v4:13|) (* 11 |v14:3|)) (* ?x10 |v11:6|)) (* ?x110 |v13:4|))))
(let ((?x164 (* ?x69 |v4:13|)))
(let ((?x252 (+ (+ (+ (* ?x10 |v2:15|) (* 7 |v8:9|)) (* ?x218 |v3:14|)) ?x164)))
(let ((?x24 4))
(let ((?x242 (+ (+ (* 20 |v6:11|) (* (- 11) |v8:9|)) (* (- 16) |v12:5|))))
(let (($x264 (and (and (<= (+ ?x242 (* ?x66 |v16:1|)) ?x24) (<= ?x252 ?x19)) (<= ?x262 ?x103))))
(let ((?x77 (- 11)))
(let (($x236 (<= (+ (+ (+ (* ?x113 |v11:6|) (* ?x230 |v10:7|)) (* ?x19 |v16:1|)) ?x208) ?x77)))
(let ((?x156 0))
(let (($x225 (<= (+ (+ (+ ?x216 (* ?x218 |v1:16|)) (* ?x92 |v11:6|)) (* ?x175 |v15:2|)) ?x156)))
(let (($x214 (<= (+ (+ (+ (* ?x49 |v4:13|) ?x208) (* ?x32 |v15:2|)) (* ?x92 |v7:10|)) ?x92)))
(let (($x205 (<= (+ (+ (+ (* ?x49 |v1:16|) (* ?x24 |v1:16|)) ?x202) (* ?x82 |v9:8|)) ?x82)))
(let ((?x197 (+ (+ (+ (* ?x36 |v16:1|) (* ?x82 |v1:16|)) (* ?x24 |v7:10|)) (* ?x195 |v5:12|))))
(let (($x305 (or (and (or (and (<= ?x197 ?x69) $x205) (and $x214 $x225)) $x236) (and $x264 $x303))))
(let ((?x117 11))
(let ((?x183 (+ (+ (+ (* (- 13) |v17:0|) (* ?x41 |v15:2|)) (* ?x36 |v5:12|)) ?x182)))
(let (($x185 (and (<= (+ (+ (+ (* ?x143 |v15:2|) (* ?x19 |v17:0|)) ?x172) ?x11) ?x175) (<= ?x183 ?x117))))
(let ((?x165 (+ (+ (+ (* ?x156 |v9:8|) (* 20 |v1:16|)) (* ?x10 |v17:0|)) ?x164)))
(let ((?x153 (+ (+ (+ (* ?x143 |v4:13|) (* ?x136 |v17:0|)) (* ?x149 |v1:16|)) (* ?x41 |v4:13|))))
(let ((?x27 13))
(let ((?x138 (+ (+ (+ (* (- 13) |v15:2|) (* ?x113 |v10:7|)) (* ?x24 |v16:1|)) ?x137)))
(let ((?x125 (+ (+ (+ (* ?x117 |v3:14|) (* ?x10 |v15:2|)) (* (- 3) |v6:11|)) (* ?x10 |v6:11|))))
(let (($x114 (<= (+ (+ (+ (* ?x103 |v3:14|) (* ?x103 |v10:7|)) (* ?x41 |v13:4|)) ?x111) ?x113)))
(let ((?x98 (+ (+ (+ (* ?x24 |v5:12|) (* ?x92 |v9:8|)) (* ?x24 |v17:0|)) (* (- 3) |v10:7|))))
(let (($x187 (or (or (and (<= ?x98 ?x49) $x114) (or (<= ?x125 ?x36) (<= ?x138 ?x27))) (and (or (<= ?x153 ?x69) (<= ?x165 ?x85)) $x185))))
(let (($x86 (<= (+ (+ (+ |v10:7| (* ?x73 |v5:12|)) (* ?x77 |v12:5|)) (* ?x82 |v9:8|)) ?x85)))
(let ((?x64 (+ (+ (* (- 5) |v0:17|) (* (- 3) |v11:6|)) (* (- 16) |v10:7|))))
(let ((?x48 (+ (+ (+ (* ?x32 |v13:4|) (* ?x36 |v17:0|)) (* ?x41 |v0:17|)) (* ?x46 |v4:13|))))
(let ((?x26 (+ (+ (+ ?x11 (* 7 |v7:10|)) (* ?x19 |v5:12|)) (* ?x24 |v6:11|))))
(let (($x89 (and (<= ?x26 ?x27) (or (<= ?x48 ?x49) (and (<= (+ ?x64 (* ?x66 |v13:4|)) ?x69) $x86)))))
(and (and (and $x89 $x187) $x305) $x512)))))))))))))))))))))))))))))))))))))))))))))))))))))))))))))))))))))))))))))))))))))))))))))))))))))))))
)
)
)
)
)
)
)
)
)
)
)
)
)
)
)
)
)
)
(check-sat)
(exit)

